certificates/rado_a13_c228_N47.cnf
c Rad2 upper bound instance: x1 + 13*x2 - x3 = 228, interval [1,47]
p cnf 47 334
1 7 18 0
-1 -7 -18 0
1 19 20 0
-1 -19 -20 0
1 20 33 0
-1 -20 -33 0
1 21 46 0
-1 -21 -46 0
2 8 18 0
-2 -8 -18 0
2 19 21 0
-2 -19 -21 0
2 20 34 0
-2 -20 -34 0
2 21 47 0
-2 -21 -47 0
3 9 18 0
-3 -9 -18 0
3 19 22 0
-3 -19 -22 0
3 20 35 0
-3 -20 -35 0
4 10 18 0
-4 -10 -18 0
4 19 23 0
-4 -19 -23 0
4 20 36 0
-4 -20 -36 0
5 11 18 0
-5 -11 -18 0
5 19 24 0
-5 -19 -24 0
5 20 37 0
-5 -20 -37 0
6 12 18 0
-6 -12 -18 0
6 19 25 0
-6 -19 -25 0
6 20 38 0
-6 -20 -38 0
7 13 18 0
-7 -13 -18 0
7 19 26 0
-7 -19 -26 0
7 20 39 0
-7 -20 -39 0
1 8 17 0
-1 -8 -17 0
8 14 18 0
-8 -14 -18 0
8 19 27 0
-8 -19 -27 0
8 20 40 0
-8 -20 -40 0
2 9 17 0
-2 -9 -17 0
9 15 18 0
-9 -15 -18 0
9 19 28 0
-9 -19 -28 0
9 20 41 0
-9 -20 -41 0
3 10 17 0
-3 -10 -17 0
10 16 18 0
-10 -16 -18 0
10 19 29 0
-10 -19 -29 0
10 20 42 0
-10 -20 -42 0
4 11 17 0
-4 -11 -17 0
11 17 18 0
-11 -17 -18 0
11 19 30 0
-11 -19 -30 0
11 20 43 0
-11 -20 -43 0
5 12 17 0
-5 -12 -17 0
12 18 0
-12 -18 0
12 19 31 0
-12 -19 -31 0
12 20 44 0
-12 -20 -44 0
6 13 17 0
-6 -13 -17 0
13 18 19 0
-13 -18 -19 0
13 19 32 0
-13 -19 -32 0
13 20 45 0
-13 -20 -45 0
7 14 17 0
-7 -14 -17 0
14 18 20 0
-14 -18 -20 0
14 19 33 0
-14 -19 -33 0
14 20 46 0
-14 -20 -46 0
8 15 17 0
-8 -15 -17 0
15 18 21 0
-15 -18 -21 0
15 19 34 0
-15 -19 -34 0
15 20 47 0
-15 -20 -47 0
9 16 17 0
-9 -16 -17 0
16 18 22 0
-16 -18 -22 0
16 19 35 0
-16 -19 -35 0
10 17 0
-10 -17 0
17 18 23 0
-17 -18 -23 0
17 19 36 0
-17 -19 -36 0
18 24 0
-18 -24 0
18 19 37 0
-18 -19 -37 0
12 17 19 0
-12 -17 -19 0
18 19 25 0
-18 -19 -25 0
19 38 0
-19 -38 0
13 17 20 0
-13 -17 -20 0
18 20 26 0
-18 -20 -26 0
19 20 39 0
-19 -20 -39 0
1 16 21 0
-1 -16 -21 0
14 17 21 0
-14 -17 -21 0
18 21 27 0
-18 -21 -27 0
19 21 40 0
-19 -21 -40 0
2 16 22 0
-2 -16 -22 0
15 17 22 0
-15 -17 -22 0
18 22 28 0
-18 -22 -28 0
19 22 41 0
-19 -22 -41 0
3 16 23 0
-3 -16 -23 0
16 17 23 0
-16 -17 -23 0
18 23 29 0
-18 -23 -29 0
19 23 42 0
-19 -23 -42 0
4 16 24 0
-4 -16 -24 0
17 24 0
-17 -24 0
18 24 30 0
-18 -24 -30 0
19 24 43 0
-19 -24 -43 0
5 16 25 0
-5 -16 -25 0
17 18 25 0
-17 -18 -25 0
18 25 31 0
-18 -25 -31 0
19 25 44 0
-19 -25 -44 0
6 16 26 0
-6 -16 -26 0
17 19 26 0
-17 -19 -26 0
18 26 32 0
-18 -26 -32 0
19 26 45 0
-19 -26 -45 0
7 16 27 0
-7 -16 -27 0
17 20 27 0
-17 -20 -27 0
18 27 33 0
-18 -27 -33 0
19 27 46 0
-19 -27 -46 0
8 16 28 0
-8 -16 -28 0
17 21 28 0
-17 -21 -28 0
18 28 34 0
-18 -28 -34 0
19 28 47 0
-19 -28 -47 0
9 16 29 0
-9 -16 -29 0
17 22 29 0
-17 -22 -29 0
18 29 35 0
-18 -29 -35 0
10 16 30 0
-10 -16 -30 0
17 23 30 0
-17 -23 -30 0
18 30 36 0
-18 -30 -36 0
11 16 31 0
-11 -16 -31 0
17 24 31 0
-17 -24 -31 0
18 31 37 0
-18 -31 -37 0
12 16 32 0
-12 -16 -32 0
17 25 32 0
-17 -25 -32 0
18 32 38 0
-18 -32 -38 0
13 16 33 0
-13 -16 -33 0
17 26 33 0
-17 -26 -33 0
18 33 39 0
-18 -33 -39 0
1 15 34 0
-1 -15 -34 0
14 16 34 0
-14 -16 -34 0
17 27 34 0
-17 -27 -34 0
18 34 40 0
-18 -34 -40 0
2 15 35 0
-2 -15 -35 0
15 16 35 0
-15 -16 -35 0
17 28 35 0
-17 -28 -35 0
18 35 41 0
-18 -35 -41 0
3 15 36 0
-3 -15 -36 0
16 36 0
-16 -36 0
17 29 36 0
-17 -29 -36 0
18 36 42 0
-18 -36 -42 0
4 15 37 0
-4 -15 -37 0
16 17 37 0
-16 -17 -37 0
17 30 37 0
-17 -30 -37 0
18 37 43 0
-18 -37 -43 0
5 15 38 0
-5 -15 -38 0
16 18 38 0
-16 -18 -38 0
17 31 38 0
-17 -31 -38 0
18 38 44 0
-18 -38 -44 0
6 15 39 0
-6 -15 -39 0
16 19 39 0
-16 -19 -39 0
17 32 39 0
-17 -32 -39 0
18 39 45 0
-18 -39 -45 0
7 15 40 0
-7 -15 -40 0
16 20 40 0
-16 -20 -40 0
17 33 40 0
-17 -33 -40 0
18 40 46 0
-18 -40 -46 0
8 15 41 0
-8 -15 -41 0
16 21 41 0
-16 -21 -41 0
17 34 41 0
-17 -34 -41 0
18 41 47 0
-18 -41 -47 0
9 15 42 0
-9 -15 -42 0
16 22 42 0
-16 -22 -42 0
17 35 42 0
-17 -35 -42 0
10 15 43 0
-10 -15 -43 0
16 23 43 0
-16 -23 -43 0
17 36 43 0
-17 -36 -43 0
11 15 44 0
-11 -15 -44 0
16 24 44 0
-16 -24 -44 0
17 37 44 0
-17 -37 -44 0
12 15 45 0
-12 -15 -45 0
16 25 45 0
-16 -25 -45 0
17 38 45 0
-17 -38 -45 0
13 15 46 0
-13 -15 -46 0
16 26 46 0
-16 -26 -46 0
17 39 46 0
-17 -39 -46 0
1 14 47 0
-1 -14 -47 0
14 15 47 0
-14 -15 -47 0
16 27 47 0
-16 -27 -47 0
17 40 47 0
-17 -40 -47 0
