certificates/rado_a13_c228_N47.drat
18 -43 -44 -45 -46 0
-42 -19 -18 -47 0
-43 -44 -45 -46 -47 0
-20 43 -44 -47 0
-44 -45 -47 -46 0
d -43 -44 -45 -46 -47 0
20 44 -47 0
17 13 -20 44 0
-45 -46 -47 0
d -44 -45 -47 -46 0
44 -46 -47 0
-20 -46 -47 0
-46 -47 0
d -45 -46 -47 0
20 -47 0
d 20 44 -47 0
-47 0
18 -20 46 0
-20 46 0
d 18 -20 46 0
-17 46 0
46 0
20 0
-14 0
1 0
15 0
-33 0
-19 0
-21 0
-34 0
-13 0
16 0
0
